p edge 22 65
e 1 2
e 1 3
e 1 4
e 1 5
e 1 8
e 1 11
e 1 12
e 1 21
e 1 22
e 2 3
e 2 4
e 2 5
e 2 7
e 2 8
e 2 9
e 2 11
e 3 4
e 3 5
e 3 7
e 3 9
e 3 11
e 3 14
e 4 5
e 4 6
e 4 7
e 4 8
e 4 9
e 4 12
e 5 11
e 5 14
e 5 16
e 6 7
e 6 9
e 6 10
e 6 13
e 6 17
e 6 18
e 6 20
e 7 9
e 7 10
e 7 13
e 7 19
e 8 9
e 8 12
e 8 15
e 8 21
e 8 22
e 9 10
e 9 12
e 9 15
e 10 13
e 10 17
e 10 18
e 11 14
e 11 16
e 12 15
e 12 22
e 13 19
e 14 16
e 15 18
e 15 20
e 17 18
e 17 20
e 18 20
e 21 22
